67
2 1 1
3 0 2
3 1 1
4 1 2
5 1 5
5 3 1
5 4 4
6 0 3
6 1 5
6 2 3
6 4 1
7 0 5
7 3 3
7 5 1
8 3 1
8 4 4
8 5 5
8 7 5
9 2 3
9 3 4
9 4 4
9 5 2
9 8 3
10 0 2
10 1 5
10 2 5
10 3 1
10 5 3
11 1 2
11 4 4
11 10 3
12 1 4
12 5 5
12 6 5
12 8 4
12 9 2
12 11 3
13 0 3
13 1 4
13 2 1
13 5 3
13 8 4
14 0 4
14 1 4
14 2 3
14 5 4
14 7 3
14 10 3
14 12 5
14 13 3
15 0 5
15 1 5
15 3 2
15 4 4
15 5 1
15 7 4
15 12 4
15 14 4
16 0 3
16 3 5
16 5 5
16 6 3
16 8 5
16 10 2
16 12 2
16 13 4
16 14 2
17 1 4
17 7 5
17 8 3
17 10 2
17 16 1
18 0 2
18 1 5
18 3 5
18 6 4
18 9 4
18 10 3
18 13 5
18 14 4
19 0 5
19 3 4
19 4 3
19 7 3
19 8 4
19 10 1
19 11 2
19 13 5
19 15 2
19 17 5
20 1 2
20 3 3
20 6 2
20 7 5
20 8 4
20 10 3
20 11 5
20 13 3
20 14 5
20 17 5
20 18 2
20 19 3
21 1 4
21 2 1
21 3 3
21 4 4
21 5 5
21 8 5
21 9 2
21 10 2
21 11 2
21 16 1
21 18 3
21 20 1
22 0 2
22 3 1
22 5 1
22 11 1
22 14 1
22 17 2
22 18 2
23 2 4
23 5 1
23 6 3
23 7 4
23 8 5
23 11 2
23 12 4
23 19 1
23 20 3
23 21 5
24 1 4
24 3 3
24 7 3
24 8 3
24 9 2
24 10 4
24 15 1
24 17 3
24 18 1
24 19 5
24 23 3
25 0 1
25 3 5
25 5 1
25 7 5
25 8 3
25 14 1
25 15 1
25 18 5
25 19 3
25 20 5
25 22 1
26 1 3
26 2 5
26 4 1
26 7 2
26 9 1
26 12 2
26 14 5
26 15 2
26 18 1
26 19 5
26 23 4
27 2 1
27 5 3
27 7 3
27 8 3
27 9 5
27 10 5
27 16 4
27 22 1
27 23 5
27 24 3
27 26 1
28 0 4
28 2 4
28 4 3
28 5 4
28 8 5
28 9 5
28 12 1
28 13 1
28 14 1
28 15 3
28 16 1
28 17 5
28 20 3
28 21 2
28 23 2
28 25 3
28 27 3
29 0 4
29 3 5
29 4 3
29 5 1
29 8 5
29 10 4
29 11 3
29 12 2
29 17 4
29 18 4
29 19 2
29 20 4
29 23 3
29 24 4
29 25 4
29 27 3
30 0 3
30 2 4
30 3 2
30 5 5
30 7 2
30 9 2
30 11 3
30 12 4
30 15 4
30 18 3
30 22 3
30 24 5
30 25 5
30 27 2
30 28 2
30 29 3
31 0 1
31 5 2
31 6 4
31 8 2
31 9 2
31 12 1
31 15 3
31 16 1
31 17 1
31 21 1
31 22 3
31 24 3
31 30 4
32 1 3
32 3 3
32 4 2
32 5 4
32 6 5
32 8 2
32 10 2
32 12 1
32 13 3
32 15 5
32 16 3
32 17 5
32 18 5
32 19 4
32 20 5
32 22 3
32 23 3
32 24 4
32 25 5
32 26 5
32 27 4
32 29 2
32 30 4
33 0 1
33 2 5
33 5 2
33 7 3
33 10 2
33 12 4
33 16 5
33 17 2
33 18 3
33 19 1
33 20 1
33 23 3
33 24 5
33 25 1
33 29 5
33 30 3
33 31 3
33 32 3
34 0 2
34 3 5
34 5 4
34 8 4
34 9 3
34 10 5
34 13 5
34 14 4
34 15 3
34 17 4
34 18 3
34 21 5
34 22 3
34 23 5
34 28 2
34 30 3
35 0 3
35 1 1
35 2 3
35 3 4
35 4 5
35 5 3
35 7 3
35 8 1
35 9 1
35 10 5
35 12 1
35 14 1
35 15 5
35 17 3
35 18 3
35 20 5
35 25 3
35 26 2
35 28 2
35 30 3
35 32 5
35 33 3
35 34 1
36 0 4
36 4 3
36 8 4
36 9 1
36 10 3
36 11 2
36 13 5
36 14 4
36 15 1
36 19 4
36 21 3
36 26 2
36 27 2
36 28 2
36 30 5
36 31 5
36 32 1
36 33 4
37 0 5
37 1 1
37 2 4
37 3 2
37 6 3
37 8 4
37 9 5
37 10 4
37 11 2
37 13 4
37 16 4
37 17 1
37 18 3
37 19 2
37 20 3
37 21 3
37 23 3
37 24 5
37 26 2
37 28 3
37 29 4
37 30 5
37 31 5
37 32 3
37 33 2
38 1 2
38 2 1
38 3 5
38 4 5
38 5 4
38 6 5
38 9 5
38 10 1
38 20 1
38 22 1
38 25 2
38 26 4
38 28 2
38 29 5
38 30 1
38 34 5
38 35 3
38 36 5
38 37 3
39 0 3
39 1 2
39 4 4
39 7 2
39 9 2
39 10 4
39 11 5
39 12 4
39 13 5
39 16 3
39 17 2
39 19 4
39 20 1
39 21 5
39 22 5
39 25 3
39 29 5
39 31 5
39 33 1
39 34 3
39 36 2
39 37 4
40 1 3
40 3 5
40 4 4
40 5 5
40 7 4
40 8 4
40 12 5
40 13 2
40 14 3
40 15 4
40 17 1
40 19 3
40 25 3
40 27 5
40 28 5
40 30 2
40 32 1
40 33 1
40 36 2
41 0 4
41 1 1
41 4 3
41 5 5
41 9 4
41 10 5
41 11 2
41 13 4
41 14 5
41 17 5
41 18 2
41 21 1
41 22 5
41 24 3
41 26 5
41 29 3
41 30 3
41 32 2
41 33 1
41 34 4
41 35 2
41 40 3
42 2 2
42 7 2
42 8 2
42 9 4
42 11 5
42 12 4
42 14 5
42 16 4
42 17 1
42 18 3
42 22 1
42 24 3
42 25 2
42 27 5
42 28 5
42 29 3
42 31 3
42 33 3
42 34 3
42 39 3
42 40 1
43 0 4
43 2 2
43 3 3
43 5 4
43 7 4
43 12 1
43 15 2
43 16 2
43 17 4
43 18 4
43 19 1
43 20 1
43 24 4
43 25 1
43 27 4
43 28 2
43 29 5
43 31 5
43 33 5
43 36 2
43 37 5
43 38 1
43 39 1
43 41 1
44 1 3
44 2 4
44 3 3
44 5 4
44 7 5
44 9 2
44 10 1
44 11 3
44 12 2
44 13 2
44 14 4
44 15 5
44 17 4
44 23 2
44 24 3
44 27 2
44 29 2
44 31 1
44 32 5
44 33 3
44 34 3
44 37 1
44 39 4
45 0 5
45 3 3
45 5 4
45 13 1
45 14 3
45 18 1
45 21 3
45 23 3
45 25 2
45 26 4
45 28 4
45 30 2
45 31 1
45 35 3
45 42 4
45 43 1
45 44 2
46 0 4
46 2 3
46 3 5
46 4 1
46 5 5
46 8 5
46 10 3
46 11 1
46 12 3
46 13 4
46 16 4
46 20 4
46 21 2
46 22 1
46 23 2
46 26 4
46 29 4
46 30 2
46 33 5
46 35 2
46 41 1
46 43 4
46 44 5
46 45 4
47 0 3
47 1 2
47 2 4
47 3 4
47 4 4
47 9 3
47 12 4
47 14 3
47 15 2
47 16 3
47 22 2
47 23 5
47 26 2
47 28 4
47 29 4
47 30 3
47 31 1
47 33 4
47 35 5
47 39 3
47 40 5
47 44 2
47 45 2
48 0 1
48 1 2
48 2 2
48 3 2
48 4 3
48 5 3
48 6 1
48 15 1
48 16 1
48 19 2
48 20 2
48 21 3
48 22 1
48 25 2
48 26 2
48 28 2
48 30 2
48 31 1
48 33 3
48 40 4
48 41 5
48 42 2
48 43 3
48 44 4
49 3 4
49 5 1
49 6 2
49 7 5
49 8 2
49 13 4
49 14 4
49 19 4
49 21 1
49 22 4
49 26 4
49 29 5
49 34 5
49 35 3
49 37 4
49 43 4
49 46 1
49 47 1
50 4 1
50 5 2
50 7 4
50 8 1
50 9 2
50 10 4
50 11 5
50 12 5
50 13 1
50 15 2
50 18 5
50 22 2
50 24 5
50 29 1
50 30 2
50 31 4
50 32 1
50 34 1
50 37 2
50 43 5
50 44 3
50 48 2
51 0 4
51 4 4
51 6 5
51 7 1
51 8 3
51 9 5
51 17 5
51 18 3
51 21 5
51 22 4
51 23 5
51 27 5
51 28 2
51 39 4
51 42 1
51 46 4
51 49 5
51 50 5
52 1 1
52 7 1
52 8 2
52 9 3
52 10 1
52 11 3
52 12 2
52 13 4
52 18 1
52 22 2
52 23 4
52 24 5
52 29 1
52 31 2
52 36 5
52 41 1
52 42 2
52 43 4
52 44 3
52 46 2
52 47 5
52 50 1
52 51 4
53 0 1
53 1 5
53 6 5
53 7 5
53 8 4
53 9 2
53 10 2
53 11 5
53 13 2
53 17 5
53 19 3
53 20 3
53 22 2
53 24 3
53 25 2
53 32 4
53 37 3
53 41 1
53 43 2
53 49 4
53 50 2
53 52 4
54 0 5
54 1 2
54 3 5
54 4 2
54 6 2
54 7 5
54 8 1
54 9 1
54 10 1
54 11 3
54 12 3
54 13 4
54 14 2
54 15 5
54 17 2
54 19 3
54 21 3
54 23 3
54 24 5
54 26 4
54 27 1
54 29 1
54 32 1
54 36 2
54 37 2
54 41 4
54 42 3
54 48 4
54 49 5
54 50 2
55 0 4
55 1 3
55 2 1
55 5 4
55 7 1
55 8 5
55 10 4
55 12 5
55 13 4
55 15 3
55 16 1
55 18 1
55 21 4
55 23 4
55 25 1
55 29 1
55 30 2
55 31 3
55 34 2
55 39 4
55 40 3
55 42 4
55 44 3
55 46 2
55 47 4
55 50 4
56 0 1
56 1 5
56 6 5
56 7 1
56 10 4
56 11 5
56 12 2
56 16 2
56 20 4
56 21 5
56 24 3
56 26 2
56 28 2
56 30 1
56 31 3
56 32 1
56 33 2
56 37 2
56 40 5
56 42 4
56 45 2
56 47 3
56 50 2
56 51 3
56 52 2
56 53 5
56 55 5
57 0 3
57 1 4
57 5 2
57 7 5
57 10 4
57 13 1
57 15 2
57 16 2
57 18 3
57 19 5
57 21 3
57 23 3
57 28 1
57 29 1
57 30 5
57 31 5
57 34 2
57 36 3
57 41 1
57 43 4
57 46 1
57 53 4
57 55 4
58 0 1
58 3 2
58 5 2
58 6 2
58 7 2
58 8 4
58 9 5
58 10 5
58 13 4
58 15 5
58 16 3
58 20 5
58 21 2
58 23 5
58 24 2
58 28 2
58 31 5
58 32 3
58 33 1
58 37 1
58 38 3
58 39 2
58 42 2
58 45 2
58 46 1
58 47 4
58 48 2
58 49 4
58 51 4
58 54 5
58 55 2
59 4 3
59 5 4
59 7 3
59 8 1
59 9 2
59 11 1
59 12 4
59 13 4
59 15 1
59 16 1
59 17 2
59 19 1
59 22 5
59 28 1
59 29 2
59 30 5
59 31 2
59 32 2
59 33 3
59 34 4
59 37 2
59 38 1
59 40 3
59 41 5
59 42 3
59 43 3
59 44 1
59 47 2
59 48 2
59 50 5
59 51 1
59 52 4
59 55 3
59 57 3
60 0 4
60 2 4
60 3 5
60 4 2
60 5 2
60 6 1
60 7 5
60 10 1
60 15 2
60 18 3
60 19 4
60 20 2
60 21 3
60 24 1
60 25 1
60 28 1
60 29 4
60 33 4
60 34 2
60 36 2
60 37 4
60 39 3
60 41 1
60 42 4
60 44 3
60 45 3
60 47 4
60 50 1
60 53 4
60 57 1
60 59 3
61 0 2
61 5 4
61 7 4
61 8 2
61 12 2
61 16 1
61 18 1
61 19 1
61 20 4
61 21 4
61 22 4
61 23 2
61 24 2
61 26 3
61 27 1
61 28 4
61 29 3
61 30 2
61 38 4
61 39 1
61 41 5
61 42 3
61 43 3
61 46 3
61 48 4
61 49 2
61 52 2
61 54 5
61 55 5
61 56 4
61 57 5
61 58 5
61 59 1
62 0 4
62 3 4
62 4 5
62 5 2
62 6 3
62 7 1
62 8 4
62 10 1
62 15 5
62 16 5
62 17 2
62 18 3
62 19 4
62 25 4
62 27 4
62 29 1
62 31 3
62 33 4
62 34 3
62 35 2
62 36 5
62 37 2
62 38 4
62 41 4
62 47 3
62 49 5
62 55 2
62 57 1
62 59 5
63 0 4
63 1 2
63 4 5
63 6 4
63 7 5
63 9 2
63 12 4
63 15 1
63 19 1
63 20 1
63 22 3
63 24 1
63 26 3
63 30 4
63 33 5
63 35 3
63 36 1
63 38 2
63 47 2
63 51 1
63 52 1
63 54 5
63 57 2
63 60 5
63 61 1
63 62 1
64 1 3
64 2 2
64 4 3
64 5 5
64 7 4
64 10 3
64 12 2
64 13 5
64 14 2
64 15 1
64 19 5
64 20 1
64 21 2
64 23 3
64 24 1
64 25 3
64 26 5
64 27 5
64 34 1
64 35 4
64 36 4
64 37 5
64 39 2
64 43 1
64 47 5
64 48 1
64 52 2
64 53 1
64 54 1
64 58 5
64 60 5
64 61 1
64 63 1
65 1 5
65 3 2
65 6 2
65 7 3
65 10 4
65 11 5
65 14 1
65 16 2
65 17 5
65 18 2
65 20 1
65 21 2
65 22 1
65 23 2
65 24 5
65 27 1
65 28 2
65 29 2
65 32 4
65 41 5
65 42 2
65 44 3
65 47 1
65 48 2
65 50 5
65 51 3
65 52 1
65 53 1
65 57 2
65 59 5
65 62 3
66 2 4
66 3 4
66 4 3
66 10 5
66 11 3
66 13 2
66 14 4
66 15 3
66 16 3
66 17 5
66 19 2
66 20 4
66 22 4
66 28 3
66 29 5
66 31 3
66 32 2
66 33 5
66 34 4
66 36 4
66 37 2
66 38 1
66 41 5
66 44 4
66 46 5
66 47 2
66 48 5
66 50 1
66 51 1
66 53 2
66 56 2
66 59 4
66 62 3
66 63 5
66 64 3
66 65 3
